400 1583 
1 5 1
1 6 1
1 7 1
1 8 1
1 10 1
1 13 1
1 15 1
1 16 1
1 17 1
1 19 1
1 23 1
1 24 1
1 28 1
1 42 1
1 48 1
1 49 1
1 51 1
1 52 1
1 57 1
1 66 1
1 67 1
1 73 1
1 87 1
1 89 1
1 96 1
1 99 1
1 103 1
1 104 1
1 107 1
1 118 1
1 131 1
1 141 1
1 148 1
1 150 1
1 156 1
1 161 1
1 179 1
1 180 1
1 183 1
1 185 1
1 192 1
1 198 1
1 216 1
1 219 1
1 229 1
1 250 1
1 258 1
1 266 1
1 276 1
1 289 1
1 299 1
1 302 1
1 314 1
1 318 1
1 342 1
1 350 1
1 363 1
1 366 1
1 375 1
2 5 1
2 6 1
2 9 1
2 10 1
2 11 1
2 14 1
2 15 1
2 16 1
2 17 1
2 20 1
2 22 1
2 23 1
2 24 1
2 25 1
2 32 1
2 35 1
2 39 1
2 40 1
2 42 1
2 54 1
2 56 1
2 59 1
2 60 1
2 64 1
2 75 1
2 76 1
2 78 1
2 79 1
2 84 1
2 98 1
2 100 1
2 128 1
2 129 1
2 130 1
2 159 1
2 161 1
2 201 1
2 203 1
2 213 1
2 215 1
2 218 1
2 220 1
2 224 1
2 228 1
2 235 1
2 239 1
2 253 1
2 256 1
2 265 1
2 273 1
2 274 1
2 275 1
2 290 1
2 302 1
2 308 1
2 315 1
2 327 1
2 354 1
2 371 1
2 396 1
3 5 1
3 13 1
3 18 1
3 34 1
3 44 1
3 59 1
3 83 1
3 85 1
3 88 1
3 89 1
3 99 1
3 106 1
3 133 1
3 167 1
3 170 1
3 231 1
3 272 1
3 282 1
3 386 1
3 387 1
3 398 1
4 5 1
4 6 1
4 7 1
4 9 1
4 10 1
4 11 1
4 12 1
4 14 1
4 15 1
4 16 1
4 19 1
4 21 1
4 30 1
4 31 1
4 32 1
4 34 1
4 36 1
4 37 1
4 45 1
4 47 1
4 49 1
4 53 1
4 54 1
4 57 1
4 61 1
4 62 1
4 63 1
4 65 1
4 68 1
4 70 1
4 72 1
4 78 1
4 92 1
4 100 1
4 110 1
4 113 1
4 121 1
4 126 1
4 134 1
4 137 1
4 149 1
4 153 1
4 156 1
4 157 1
4 161 1
4 168 1
4 176 1
4 186 1
4 193 1
4 196 1
4 197 1
4 202 1
4 210 1
4 212 1
4 229 1
4 234 1
4 239 1
4 260 1
4 280 1
4 287 1
4 292 1
4 294 1
4 298 1
4 304 1
4 308 1
4 326 1
4 329 1
4 330 1
4 335 1
4 361 1
4 399 1
4 400 1
5 6 1
5 7 1
5 8 1
5 15 1
5 17 1
5 21 1
5 35 1
5 41 1
5 44 1
5 51 1
5 56 1
5 64 1
5 71 1
5 73 1
5 76 1
5 77 1
5 81 1
5 85 1
5 103 1
5 112 1
5 115 1
5 121 1
5 123 1
5 127 1
5 128 1
5 132 1
5 139 1
5 144 1
5 154 1
5 157 1
5 159 1
5 165 1
5 166 1
5 169 1
5 175 1
5 178 1
5 179 1
5 189 1
5 213 1
5 220 1
5 270 1
5 286 1
5 302 1
5 348 1
5 361 1
5 362 1
5 366 1
5 372 1
5 387 1
5 399 1
6 7 1
6 8 1
6 9 1
6 10 1
6 11 1
6 13 1
6 24 1
6 27 1
6 29 1
6 34 1
6 37 1
6 38 1
6 41 1
6 46 1
6 55 1
6 64 1
6 67 1
6 68 1
6 82 1
6 87 1
6 90 1
6 91 1
6 94 1
6 106 1
6 107 1
6 113 1
6 114 1
6 120 1
6 127 1
6 142 1
6 154 1
6 160 1
6 167 1
6 169 1
6 177 1
6 201 1
6 206 1
6 216 1
6 226 1
6 230 1
6 255 1
6 267 1
6 279 1
6 284 1
6 287 1
6 310 1
6 312 1
6 338 1
6 344 1
6 346 1
6 355 1
6 361 1
6 367 1
6 373 1
6 395 1
7 8 1
7 9 1
7 12 1
7 18 1
7 19 1
7 20 1
7 21 1
7 23 1
7 25 1
7 28 1
7 30 1
7 31 1
7 32 1
7 38 1
7 41 1
7 44 1
7 45 1
7 48 1
7 52 1
7 56 1
7 60 1
7 70 1
7 73 1
7 76 1
7 78 1
7 79 1
7 80 1
7 82 1
7 113 1
7 125 1
7 126 1
7 135 1
7 146 1
7 147 1
7 162 1
7 187 1
7 196 1
7 206 1
7 212 1
7 220 1
7 222 1
7 225 1
7 229 1
7 239 1
7 249 1
7 262 1
7 293 1
7 309 1
7 310 1
7 316 1
7 330 1
7 369 1
7 388 1
7 393 1
8 12 1
8 25 1
8 26 1
8 33 1
8 34 1
8 40 1
8 65 1
8 71 1
8 77 1
8 111 1
8 149 1
8 172 1
8 178 1
8 180 1
8 185 1
8 205 1
8 273 1
8 294 1
8 334 1
8 352 1
9 12 1
9 21 1
9 22 1
9 24 1
9 26 1
9 29 1
9 32 1
9 36 1
9 51 1
9 54 1
9 58 1
9 60 1
9 66 1
9 93 1
9 94 1
9 95 1
9 101 1
9 134 1
9 135 1
9 136 1
9 141 1
9 182 1
9 199 1
9 203 1
9 230 1
9 254 1
9 265 1
9 285 1
9 299 1
9 309 1
9 375 1
10 11 1
10 13 1
10 20 1
10 28 1
10 36 1
10 93 1
10 102 1
10 103 1
10 152 1
10 194 1
10 200 1
10 326 1
10 329 1
10 338 1
10 359 1
10 382 1
10 395 1
11 17 1
11 27 1
11 39 1
11 55 1
11 62 1
11 66 1
11 86 1
11 92 1
11 99 1
11 110 1
11 158 1
11 169 1
11 205 1
11 233 1
11 242 1
11 259 1
11 263 1
11 279 1
11 286 1
11 318 1
11 328 1
12 14 1
12 18 1
12 30 1
12 42 1
12 45 1
12 47 1
12 101 1
12 120 1
12 121 1
12 125 1
12 139 1
12 154 1
12 188 1
12 192 1
12 201 1
12 249 1
12 282 1
12 324 1
12 331 1
12 354 1
12 379 1
12 386 1
12 393 1
13 14 1
13 18 1
13 22 1
13 31 1
13 63 1
13 69 1
13 71 1
13 86 1
13 93 1
13 96 1
13 101 1
13 111 1
13 136 1
13 157 1
13 176 1
13 188 1
13 190 1
13 214 1
13 242 1
13 284 1
13 291 1
13 296 1
13 348 1
13 351 1
13 356 1
13 369 1
13 384 1
14 16 1
14 22 1
14 23 1
14 28 1
14 33 1
14 35 1
14 36 1
14 37 1
14 38 1
14 50 1
14 52 1
14 56 1
14 57 1
14 72 1
14 81 1
14 130 1
14 172 1
14 184 1
14 243 1
14 244 1
14 265 1
14 276 1
14 289 1
14 323 1
14 352 1
15 19 1
15 27 1
15 39 1
15 74 1
15 90 1
15 143 1
15 153 1
15 174 1
15 217 1
15 221 1
15 253 1
15 267 1
15 297 1
15 323 1
15 324 1
16 33 1
16 48 1
16 74 1
16 92 1
16 95 1
16 112 1
16 138 1
16 140 1
16 144 1
16 147 1
16 148 1
16 155 1
16 209 1
16 262 1
16 286 1
16 324 1
16 337 1
17 27 1
17 29 1
17 33 1
17 53 1
17 58 1
17 77 1
17 83 1
17 98 1
17 119 1
17 134 1
17 166 1
17 264 1
17 269 1
17 277 1
17 308 1
17 364 1
18 75 1
18 83 1
18 211 1
18 225 1
18 259 1
19 20 1
19 85 1
19 89 1
19 103 1
19 109 1
19 113 1
19 152 1
19 202 1
19 267 1
19 292 1
19 320 1
19 372 1
19 387 1
20 42 1
20 86 1
20 124 1
20 135 1
20 145 1
20 151 1
20 158 1
20 186 1
20 400 1
21 26 1
21 53 1
21 99 1
21 111 1
21 150 1
21 169 1
21 220 1
21 249 1
21 277 1
21 396 1
22 46 1
22 47 1
22 50 1
22 74 1
22 102 1
22 154 1
22 174 1
22 221 1
22 227 1
22 251 1
22 271 1
22 275 1
22 295 1
22 379 1
23 25 1
23 30 1
23 46 1
23 49 1
23 58 1
23 67 1
23 76 1
23 80 1
23 90 1
23 92 1
23 105 1
23 129 1
23 162 1
23 202 1
23 260 1
23 275 1
23 305 1
23 335 1
23 392 1
24 49 1
24 196 1
24 317 1
25 26 1
25 54 1
25 72 1
25 73 1
25 82 1
25 97 1
25 127 1
25 137 1
25 152 1
25 182 1
25 187 1
25 189 1
25 192 1
25 201 1
25 219 1
25 340 1
25 343 1
25 380 1
25 397 1
26 39 1
26 121 1
26 188 1
26 231 1
26 329 1
26 385 1
27 29 1
27 38 1
27 40 1
27 41 1
27 43 1
27 58 1
27 62 1
27 74 1
27 81 1
27 102 1
27 108 1
27 110 1
27 112 1
27 114 1
27 116 1
27 118 1
27 120 1
27 137 1
27 138 1
27 139 1
27 177 1
27 181 1
27 182 1
27 199 1
27 203 1
27 208 1
27 219 1
27 235 1
27 238 1
27 258 1
27 269 1
27 288 1
27 303 1
27 344 1
27 357 1
27 364 1
27 385 1
28 31 1
28 50 1
28 72 1
28 115 1
28 142 1
28 152 1
28 259 1
28 295 1
28 349 1
28 360 1
28 379 1
28 383 1
29 35 1
29 43 1
29 50 1
29 75 1
29 84 1
29 93 1
29 98 1
29 108 1
29 128 1
29 183 1
29 195 1
29 205 1
29 223 1
29 242 1
29 273 1
29 295 1
29 332 1
29 348 1
29 383 1
30 60 1
30 204 1
30 227 1
31 151 1
32 141 1
32 164 1
32 209 1
32 339 1
32 349 1
33 40 1
33 48 1
33 52 1
33 63 1
33 81 1
33 107 1
33 117 1
33 118 1
33 146 1
33 166 1
33 193 1
33 272 1
33 301 1
33 310 1
33 370 1
34 218 1
34 333 1
34 389 1
35 37 1
35 57 1
35 71 1
35 77 1
35 133 1
35 140 1
35 145 1
35 151 1
35 174 1
35 212 1
35 300 1
35 325 1
35 354 1
35 367 1
36 51 1
36 61 1
36 68 1
36 69 1
36 80 1
36 109 1
36 151 1
36 208 1
36 242 1
36 261 1
36 330 1
36 378 1
36 388 1
37 65 1
37 69 1
37 109 1
37 145 1
37 146 1
37 163 1
37 230 1
37 280 1
37 328 1
38 43 1
38 61 1
38 88 1
38 124 1
38 141 1
38 146 1
38 165 1
38 208 1
38 238 1
38 255 1
39 46 1
39 47 1
39 53 1
39 55 1
39 104 1
39 150 1
39 153 1
39 155 1
39 214 1
39 218 1
39 243 1
39 263 1
39 264 1
39 397 1
40 44 1
40 59 1
40 70 1
40 84 1
40 100 1
40 105 1
40 189 1
40 223 1
40 236 1
40 246 1
40 355 1
40 372 1
40 382 1
41 43 1
41 95 1
41 98 1
41 127 1
41 159 1
41 216 1
41 221 1
41 267 1
41 363 1
42 45 1
42 82 1
42 136 1
42 190 1
42 228 1
42 274 1
42 303 1
43 186 1
43 208 1
43 237 1
43 304 1
43 378 1
44 306 1
44 311 1
44 323 1
45 96 1
45 125 1
45 279 1
45 306 1
47 140 1
47 204 1
47 280 1
47 303 1
47 342 1
48 84 1
48 88 1
48 97 1
48 112 1
48 126 1
48 133 1
48 147 1
48 160 1
48 179 1
48 183 1
48 197 1
48 207 1
48 209 1
48 224 1
48 282 1
48 322 1
48 365 1
48 372 1
48 381 1
49 87 1
49 134 1
49 210 1
49 240 1
49 290 1
49 311 1
50 85 1
50 119 1
50 135 1
50 187 1
50 206 1
50 381 1
50 390 1
51 88 1
51 132 1
51 172 1
51 202 1
51 301 1
51 320 1
52 55 1
52 65 1
52 70 1
52 100 1
52 101 1
52 122 1
52 185 1
52 204 1
52 226 1
52 266 1
52 285 1
52 286 1
52 314 1
52 330 1
52 361 1
53 63 1
53 80 1
53 321 1
53 335 1
54 69 1
54 106 1
54 124 1
54 143 1
54 163 1
54 179 1
54 215 1
54 222 1
54 240 1
54 251 1
54 259 1
54 278 1
54 306 1
54 371 1
55 94 1
55 308 1
55 353 1
56 61 1
56 64 1
56 75 1
56 78 1
56 140 1
56 184 1
57 59 1
57 62 1
57 87 1
57 91 1
57 138 1
57 180 1
57 211 1
57 214 1
57 241 1
57 296 1
57 320 1
58 79 1
58 95 1
58 125 1
58 129 1
58 165 1
58 188 1
58 228 1
58 241 1
59 66 1
59 68 1
59 83 1
59 107 1
59 119 1
59 177 1
59 195 1
59 232 1
59 244 1
59 263 1
59 311 1
59 321 1
59 347 1
60 67 1
60 117 1
60 198 1
60 225 1
60 249 1
60 272 1
60 290 1
60 297 1
60 298 1
61 91 1
61 122 1
61 131 1
61 150 1
61 168 1
61 191 1
61 197 1
61 250 1
61 293 1
62 79 1
62 89 1
62 96 1
62 114 1
62 126 1
62 177 1
62 214 1
62 217 1
62 223 1
62 247 1
62 340 1
62 368 1
63 108 1
63 111 1
63 118 1
63 160 1
64 197 1
64 294 1
64 350 1
65 109 1
67 105 1
67 128 1
68 120 1
68 364 1
68 389 1
68 391 1
69 213 1
69 232 1
69 246 1
70 117 1
70 233 1
70 236 1
70 271 1
71 131 1
71 341 1
71 351 1
72 115 1
73 131 1
73 149 1
73 178 1
73 181 1
73 228 1
73 281 1
73 351 1
74 253 1
74 317 1
75 148 1
75 287 1
76 157 1
76 183 1
76 194 1
76 206 1
76 215 1
76 270 1
76 299 1
76 326 1
77 94 1
77 116 1
77 139 1
77 209 1
78 167 1
78 171 1
78 270 1
79 132 1
79 281 1
79 316 1
80 258 1
81 173 1
82 312 1
83 105 1
83 170 1
83 251 1
83 345 1
83 373 1
83 374 1
84 86 1
84 90 1
84 142 1
84 149 1
84 194 1
84 284 1
84 365 1
85 102 1
85 155 1
85 315 1
85 341 1
85 362 1
85 365 1
86 110 1
86 132 1
86 173 1
86 255 1
86 283 1
86 328 1
86 343 1
86 367 1
87 104 1
87 123 1
87 130 1
87 353 1
88 97 1
88 108 1
88 114 1
88 133 1
88 160 1
88 165 1
88 210 1
88 212 1
88 215 1
88 237 1
88 277 1
89 387 1
90 91 1
90 116 1
90 143 1
90 158 1
90 176 1
90 181 1
90 198 1
90 245 1
90 261 1
90 276 1
90 305 1
90 319 1
90 332 1
91 117 1
91 224 1
91 261 1
91 298 1
91 336 1
91 349 1
92 122 1
92 170 1
92 283 1
92 358 1
93 97 1
93 170 1
93 375 1
94 291 1
95 325 1
96 143 1
96 159 1
96 176 1
96 180 1
96 247 1
96 248 1
96 271 1
96 274 1
96 287 1
96 304 1
96 337 1
96 347 1
96 357 1
97 106 1
98 123 1
98 148 1
98 163 1
98 199 1
99 116 1
99 253 1
100 104 1
100 171 1
100 193 1
100 226 1
100 373 1
101 124 1
101 199 1
101 336 1
101 356 1
101 373 1
102 115 1
102 164 1
102 256 1
102 310 1
102 374 1
102 397 1
103 178 1
103 318 1
103 371 1
104 156 1
104 264 1
104 319 1
104 357 1
104 363 1
105 236 1
105 243 1
107 144 1
107 153 1
107 187 1
107 258 1
107 321 1
108 265 1
108 269 1
109 119 1
109 190 1
109 207 1
109 222 1
109 339 1
109 346 1
109 374 1
109 395 1
110 158 1
110 172 1
111 136 1
111 250 1
111 331 1
111 340 1
112 248 1
112 278 1
113 122 1
113 162 1
113 173 1
113 174 1
113 204 1
113 385 1
113 392 1
114 224 1
114 241 1
114 266 1
114 307 1
115 175 1
115 257 1
116 211 1
116 246 1
116 268 1
116 305 1
116 306 1
116 324 1
117 358 1
118 129 1
118 272 1
118 278 1
118 325 1
118 381 1
119 144 1
119 185 1
120 364 1
120 398 1
121 163 1
121 233 1
122 123 1
123 322 1
124 377 1
124 380 1
125 138 1
126 142 1
126 237 1
126 241 1
126 321 1
126 366 1
127 130 1
127 137 1
127 155 1
127 205 1
127 291 1
128 281 1
128 309 1
129 248 1
129 274 1
129 383 1
130 233 1
130 336 1
131 217 1
131 234 1
131 288 1
131 356 1
131 390 1
132 145 1
132 198 1
132 223 1
132 283 1
132 289 1
132 294 1
132 353 1
132 369 1
134 168 1
134 370 1
134 384 1
136 168 1
136 191 1
136 316 1
136 359 1
137 156 1
137 161 1
137 217 1
137 368 1
138 171 1
138 186 1
138 193 1
138 231 1
138 257 1
138 263 1
139 162 1
139 182 1
139 231 1
140 244 1
140 252 1
140 316 1
140 367 1
141 164 1
141 200 1
142 171 1
142 257 1
142 271 1
142 300 1
142 329 1
142 388 1
143 167 1
143 181 1
143 184 1
143 216 1
143 289 1
143 340 1
143 393 1
144 166 1
145 292 1
146 147 1
146 256 1
147 175 1
147 192 1
147 227 1
147 301 1
148 268 1
148 296 1
148 339 1
148 368 1
149 173 1
149 250 1
149 251 1
149 393 1
150 200 1
150 254 1
150 262 1
150 394 1
151 210 1
151 318 1
152 218 1
153 164 1
153 184 1
153 396 1
154 190 1
154 200 1
154 219 1
154 293 1
156 189 1
156 268 1
156 273 1
156 307 1
156 319 1
156 359 1
159 195 1
159 348 1
160 191 1
160 276 1
161 194 1
161 203 1
161 225 1
161 240 1
161 248 1
161 254 1
161 317 1
161 337 1
161 390 1
161 398 1
162 195 1
162 211 1
162 221 1
162 382 1
162 400 1
163 247 1
163 345 1
166 300 1
168 238 1
168 252 1
169 222 1
171 234 1
171 260 1
171 323 1
172 301 1
172 320 1
172 322 1
172 327 1
172 360 1
175 244 1
175 319 1
175 346 1
175 349 1
176 376 1
177 332 1
177 376 1
179 229 1
179 309 1
180 191 1
181 207 1
181 245 1
181 252 1
181 261 1
181 275 1
181 337 1
181 341 1
182 389 1
183 386 1
184 238 1
184 399 1
185 240 1
185 245 1
185 282 1
185 284 1
185 377 1
186 196 1
187 227 1
187 232 1
187 235 1
187 314 1
187 342 1
187 375 1
188 328 1
188 334 1
189 374 1
190 300 1
190 313 1
190 376 1
192 338 1
195 243 1
195 335 1
196 235 1
196 254 1
196 384 1
196 386 1
197 226 1
198 262 1
200 232 1
200 296 1
200 339 1
200 357 1
201 322 1
201 395 1
202 207 1
202 237 1
202 239 1
202 281 1
203 213 1
203 230 1
203 266 1
203 270 1
203 280 1
203 292 1
204 315 1
204 334 1
205 327 1
205 354 1
206 384 1
206 392 1
207 302 1
209 313 1
210 264 1
211 247 1
212 332 1
212 344 1
212 355 1
212 394 1
213 234 1
213 307 1
213 388 1
213 391 1
215 277 1
215 360 1
216 342 1
217 252 1
217 327 1
217 355 1
217 356 1
218 291 1
219 303 1
219 343 1
219 344 1
220 268 1
221 352 1
222 256 1
223 278 1
226 295 1
227 245 1
227 246 1
227 297 1
227 345 1
229 279 1
230 255 1
230 312 1
231 358 1
233 346 1
234 341 1
234 390 1
235 236 1
236 311 1
237 257 1
237 378 1
238 331 1
239 345 1
240 260 1
240 290 1
240 347 1
241 288 1
241 350 1
242 362 1
242 396 1
243 397 1
245 377 1
245 391 1
246 315 1
251 333 1
251 371 1
252 283 1
254 368 1
259 298 1
259 377 1
260 269 1
260 312 1
260 325 1
260 334 1
260 398 1
265 299 1
265 304 1
265 370 1
266 307 1
266 350 1
266 382 1
266 385 1
268 369 1
269 285 1
271 363 1
271 380 1
272 288 1
273 285 1
273 305 1
275 317 1
277 313 1
280 313 1
280 394 1
282 343 1
284 293 1
284 380 1
285 297 1
286 336 1
288 338 1
297 314 1
297 360 1
298 358 1
298 362 1
299 366 1
303 347 1
305 376 1
305 378 1
307 326 1
310 381 1
311 333 1
313 331 1
313 394 1
314 333 1
319 370 1
320 365 1
331 359 1
346 352 1
350 351 1
350 353 1
351 379 1
352 383 1
364 391 1
369 392 1
385 400 1
387 399 1
388 389 1
